(set-logic HORN)
(declare-fun state (Int (Array Int Int) (Array Int Int) (Array Int Int) (Array Int Int) Int Int (Array Int Int) (Array Int Int) Int Int Int Int Int Int Int Int Int Int Int Int Bool Bool Bool Bool Bool Bool (Array Int Int)) Bool)
(assert (forall ((|A_36| Int) (|B_36| (Array Int Int)) (|C_36| (Array Int Int)) (|D_36| (Array Int Int)) (|E_36| (Array Int Int)) (|F_36| Int) (|G_36| Int) (|H_36| (Array Int Int)) (|I_36| (Array Int Int)) (|J_36| Int) (|K_36| Int) (|L_36| Int) (|M_36| Int) (|N_36| Int) (|O_36| Int) (|P_36| Int) (|Q_36| Int) (|R_36| Int) (|S_36| Int) (|T_36| Int) (|U_36| Int) (|W_18| Bool) (|.loc.6| Bool) (|.loc.7| Bool) (|.loc.8| Bool) (|.loc.9| Bool) (|.loc.10| Bool) (|W_0| (Array Int Int)) (|.x.784| Int) (|.x.782| (Array Int Int)) (|.x.780| Int) (|.x.778| (Array Int Int)) (|.x.774| Int) (|.x.776| (Array Int Int)) (|.x.775| (Array Int Int)) (|V_36| Bool) (|.x.785| Int) (|.x.786| Int) (|.x.787| Int) (|.x.789| Int) (|.loc.13| Bool) (|.loc.12| Bool) (|.x.790| Int) (|.x.788| Int) (|.x.793| Int) (|.loc.11| Bool) (|.x.794| Int) (|.x.792| Int) (|.loc.14| Bool) (|.loc.15| Bool) (|.x.791| Int) (|.x.777| (Array Int Int)) (|.x.783| Int) (|.x.779| Int) (|.x.781| (Array Int Int)) (|.xtv.1| (Array Int Int))) (=> (and (and (and (and (and .loc.6 (not .loc.7)) (not .loc.8)) (not .loc.9)) (not .loc.10)) (and (and (and (and (and (= D_36 E_36) (not W_18)) (= F_36 G_36)) (= J_36 K_36)) (= H_36 I_36)) (= B_36 C_36))) (state |A_36| |B_36| |C_36| |D_36| |E_36| |F_36| |G_36| |H_36| |I_36| |J_36| |K_36| |L_36| |M_36| |N_36| |O_36| |P_36| |Q_36| |R_36| |S_36| |T_36| |U_36| |W_18| |.loc.6| |.loc.7| |.loc.8| |.loc.9| |.loc.10| |W_0|))))
(assert (forall ((|A_36| Int) (|B_36| (Array Int Int)) (|C_36| (Array Int Int)) (|D_36| (Array Int Int)) (|E_36| (Array Int Int)) (|F_36| Int) (|G_36| Int) (|H_36| (Array Int Int)) (|I_36| (Array Int Int)) (|J_36| Int) (|K_36| Int) (|L_36| Int) (|M_36| Int) (|N_36| Int) (|O_36| Int) (|P_36| Int) (|Q_36| Int) (|R_36| Int) (|S_36| Int) (|T_36| Int) (|U_36| Int) (|W_18| Bool) (|.loc.6| Bool) (|.loc.7| Bool) (|.loc.8| Bool) (|.loc.9| Bool) (|.loc.10| Bool) (|W_0| (Array Int Int)) (|.x.784| Int) (|.x.782| (Array Int Int)) (|.x.780| Int) (|.x.778| (Array Int Int)) (|.x.774| Int) (|.x.776| (Array Int Int)) (|.x.775| (Array Int Int)) (|V_36| Bool) (|.x.785| Int) (|.x.786| Int) (|.x.787| Int) (|.x.789| Int) (|.loc.13| Bool) (|.loc.12| Bool) (|.x.790| Int) (|.x.788| Int) (|.x.793| Int) (|.loc.11| Bool) (|.x.794| Int) (|.x.792| Int) (|.loc.14| Bool) (|.loc.15| Bool) (|.x.791| Int) (|.x.777| (Array Int Int)) (|.x.783| Int) (|.x.779| Int) (|.x.781| (Array Int Int)) (|.xtv.1| (Array Int Int))) (=> (and (state |A_36| |B_36| |C_36| |D_36| |E_36| |F_36| |G_36| |H_36| |I_36| |J_36| |K_36| |L_36| |M_36| |N_36| |O_36| |P_36| |Q_36| |R_36| |S_36| |T_36| |U_36| |W_18| |.loc.6| |.loc.7| |.loc.8| |.loc.9| |.loc.10| |W_0|) (let ((.def_38 (not .loc.7))) (let ((.def_40 (not .loc.8))) (let ((.def_42 (not .loc.9))) (let ((.def_44 (not .loc.10))) (let ((.def_76 (= B_36 .x.775))) (let ((.def_80 (= L_36 .x.785))) (let ((.def_83 (= M_36 .x.786))) (let ((.def_86 (= N_36 .x.787))) (let ((.def_89 (= P_36 .x.789))) (let ((.def_91 (not .loc.6))) (let ((.def_102 (= W_18 V_36))) (let ((.def_109 (not .loc.12))) (let ((.def_112 (= O_36 0))) (let ((.def_116 (and .def_86 (and .def_83 (and .def_76 .def_80))))) (let ((.def_117 (and .def_89 .def_116))) (let ((.def_121 (not .loc.13))) (let ((.def_127 (= Q_36 .x.790))) (let ((.def_129 (= O_36 .x.788))) (let ((.def_132 (= T_36 .x.793))) (let ((.def_135 (not .loc.11))) (let ((.def_142 (select D_36 N_36))) (let ((.def_146 (<= 100000 U_36))) (let ((.def_166 (= U_36 .x.794))) (let ((.def_168 (= S_36 .x.792))) (let ((.def_178 (and .def_89 (and .def_116 .def_129)))) (let ((.def_195 (and .def_132 (and .def_168 (and .def_127 .def_178))))) (let ((.def_207 (and W_18 .def_76))) (let ((.def_216 (and .def_166 (and .def_132 (and .def_168 (and .def_127 (and .def_89 (and .def_129 (and .def_86 (and .def_83 (and .def_80 .def_207))))))))))) (let ((.def_228 (and .def_166 .def_195))) (let ((.def_241 (not .loc.14))) (let ((.def_255 (not .loc.15))) (let ((.def_258 (and .loc.7 .def_228))) (let ((.def_259 (and .loc.8 .def_258))) (let ((.def_261 (and .def_91 (and .loc.9 .def_259)))) (let ((.def_269 (<= 100000 R_36))) (let ((.def_270 (or W_18 .def_269))) (let ((.def_274 (= R_36 .x.791))) (let ((.def_276 (= D_36 .x.777))) (let ((.def_280 (+ M_36 (* 4 R_36)))) (let ((.def_288 (and (not .def_269) (= (+ R_36 (* (- 1) .x.791)) (- 1))))) (let ((.def_308 (and .def_127 (and .def_89 (and .def_129 (and .def_86 (and .def_83 (and .def_80 (and .def_76 .def_276))))))))) (let ((.def_312 (and .def_166 (and .def_132 (and .def_168 (and .def_274 .def_308)))))) (let ((.def_336 (and .def_166 (and .def_132 (and .def_168 (and .def_274 (and .def_127 (and .def_89 (and .def_129 (and .def_86 (and .def_83 (and .def_80 (and .def_207 .def_276))))))))))))) (let ((.def_337 (and .loc.7 .def_336))) (let ((.def_352 (and .loc.6 (and .def_166 (and .def_132 (and .def_168 .def_308)))))) (let ((.def_353 (and .loc.8 .def_352))) (let ((.def_363 (= .x.791 0))) (let ((.def_364 (or W_18 .def_363))) (let ((.def_367 (and .loc.8 .def_336))) (let ((.def_379 (and .loc.8 .def_312))) (let ((.def_398 (and .loc.8 .def_228))) (let ((.def_411 (and .loc.7 .def_352))) (let ((.def_434 (and .loc.7 .def_312))) (and (and (= K_36 .x.784) (and (= I_36 .x.782) (and (= G_36 .x.780) (and (= E_36 .x.778) (and (= A_36 .x.774) (= C_36 .x.776)))))) (or (and (or (or (or (or (or (or (or (or (or (or (or (or (or (or (or (or (or (or (or (or (or (or (or (or (or (or (or (and (or (or (and (or (or (or (and (or (and (or (and (or (and (or (and (and (and (and (and (and .def_76 V_36) .def_80) .def_83) .def_86) .def_89) .def_91) (and (or W_18 (and (= .x.789 0) (= .x.775 (store B_36 N_36 0)))) (and (and .loc.6 (or V_36 (= .x.785 .x.789))) .def_102))) (and (and .loc.7 .loc.13) .def_109)) (and (or W_18 .def_112) (and .def_38 (and (and .def_102 (and .loc.12 (and .loc.6 .def_117))) .def_121)))) (and (and (and .def_127 .def_129) .def_132) .def_135)) (and (or W_18 (and (= .x.788 .x.793) (and (= .x.790 (select .def_142 (+ M_36 (* 4 U_36)))) (and (not .def_146) (= .x.793 (ite (= .x.790 48) 1 0)))))) (and .def_38 (and .def_121 (and .def_102 (and .def_109 (and .loc.11 (and .def_91 .def_117)))))))) (and .loc.10 (and .def_166 .def_168))) (and (or V_36 (= (+ U_36 (* (- 1) .x.794)) (- 1))) (and .def_44 (and .def_38 (and .def_121 (and .def_102 (and .def_109 (and .def_135 (and .def_91 (and .def_132 .def_178)))))))))) (and .def_40 .def_42)) (and (or W_18 (= .x.794 0)) (and .def_44 (and .def_121 (and .def_102 (and .def_109 (and .def_135 (and .loc.9 (and .loc.8 (and .loc.7 (and .loc.6 .def_195))))))))))) (and .def_38 (and .def_121 (and .def_102 (and .loc.12 (and .loc.11 (and .def_42 (and .def_40 (and .def_91 (and .loc.10 .def_216)))))))))) (and (or W_18 .def_146) (and .def_38 (and .def_121 (and .def_102 (and .loc.12 (and .loc.11 (and .def_42 (and .def_40 (and .def_91 (and .loc.10 .def_228))))))))))) (and .def_241 .loc.15)) (and (and .def_44 (and .def_102 (and .loc.14 (and .loc.13 (and .loc.12 (and .loc.11 (and .def_91 (and .loc.9 (and .loc.8 (and .loc.7 .def_216)))))))))) .def_255)) (and (and .def_255 (and .def_44 (and .def_102 (and .loc.14 (and .loc.13 (and .loc.12 (and .loc.11 .def_261))))))) .def_270)) (and .def_274 .def_276)) (and (or W_18 (and (= .x.777 (store D_36 N_36 (store .def_142 .def_280 48))) .def_288)) (and .def_255 (and .def_44 (and .def_102 (and .def_135 (and .loc.14 (and .loc.13 (and .loc.12 .def_261))))))))) (and (or W_18 (not .def_112)) (and .def_255 (and .def_38 (and .def_121 (and .def_102 (and .def_241 (and .def_109 (and .def_135 (and .def_42 (and .def_40 (and .loc.10 (and .loc.6 .def_312))))))))))))) (and .def_255 (and .def_121 (and .def_102 (and .def_241 (and .def_109 (and .def_135 (and .def_42 (and .def_40 (and .def_91 (and .loc.10 .def_337))))))))))) (and (and .def_255 (and .def_44 (and .def_38 (and .def_102 (and .def_135 (and .loc.14 (and .loc.13 (and .loc.12 (and .loc.9 .def_353))))))))) .def_364)) (and .def_255 (and .def_44 (and .def_38 (and .def_102 (and .def_109 (and .loc.14 (and .loc.13 (and .loc.11 (and .def_91 (and .loc.9 .def_367))))))))))) (and .def_270 (and .def_255 (and .def_44 (and .def_38 (and .def_102 (and .def_109 (and .loc.14 (and .loc.13 (and .loc.11 (and .def_91 (and .loc.9 .def_379)))))))))))) (and (or W_18 (and .def_288 (= .x.777 (store D_36 N_36 (store .def_142 .def_280 47))))) (and .def_255 (and .def_44 (and .def_38 (and .def_102 (and .def_109 (and .def_135 (and .loc.14 (and .loc.13 (and .def_91 (and .loc.9 .def_398)))))))))))) (and .def_364 (and .def_255 (and .def_44 (and .def_102 (and .def_109 (and .def_135 (and .loc.14 (and .loc.13 (and .def_40 (and .loc.9 .def_411))))))))))) (and .def_255 (and .def_44 (and .def_121 (and .def_102 (and .loc.14 (and .loc.12 (and .loc.11 (and .def_40 (and .def_91 (and .loc.9 .def_337))))))))))) (and .def_270 (and .def_255 (and .def_44 (and .def_121 (and .def_102 (and .loc.14 (and .loc.12 (and .loc.11 (and .def_40 (and .def_91 (and .loc.9 .def_434)))))))))))) (and (or W_18 (and .def_288 (= .x.777 (store D_36 N_36 (store .def_142 .def_280 46))))) (and .def_255 (and .def_44 (and .def_121 (and .def_102 (and .def_135 (and .loc.14 (and .loc.12 (and .def_40 (and .def_91 (and .loc.9 .def_258)))))))))))) (and .def_364 (and .def_255 (and .def_44 (and .def_38 (and .def_121 (and .def_102 (and .def_135 (and .loc.14 (and .loc.12 (and .def_40 (and .loc.9 .def_352)))))))))))) (and .def_255 (and .def_44 (and .def_38 (and .def_121 (and .def_102 (and .def_109 (and .loc.14 (and .loc.11 (and .def_40 (and .def_91 (and .loc.9 .def_336)))))))))))) (and .def_270 (and .def_255 (and .def_44 (and .def_38 (and .def_121 (and .def_102 (and .def_109 (and .loc.14 (and .loc.11 (and .def_40 (and .def_91 (and .loc.9 .def_312))))))))))))) (and (or W_18 (and .def_288 (= .x.777 (store D_36 N_36 (store .def_142 .def_280 45))))) (and .def_255 (and .def_44 (and .def_38 (and .def_121 (and .def_102 (and .def_109 (and .def_135 (and .loc.14 (and .def_40 (and .def_91 (and .loc.9 .def_228))))))))))))) (and .def_364 (and .def_255 (and .def_44 (and .def_121 (and .def_102 (and .def_109 (and .def_135 (and .loc.14 (and .def_42 (and .loc.8 .def_411))))))))))) (and .def_255 (and .def_44 (and .def_102 (and .def_241 (and .loc.13 (and .loc.12 (and .loc.11 (and .def_42 (and .def_91 (and .loc.8 .def_337))))))))))) (and .def_270 (and .def_255 (and .def_44 (and .def_102 (and .def_241 (and .loc.13 (and .loc.12 (and .loc.11 (and .def_42 (and .def_91 (and .loc.8 .def_434)))))))))))) (and (or W_18 (and .def_288 (= .x.777 (store D_36 N_36 (store .def_142 .def_280 44))))) (and .def_255 (and .def_44 (and .def_102 (and .def_241 (and .def_135 (and .loc.13 (and .loc.12 (and .def_42 (and .def_91 .def_259))))))))))) (and .def_364 (and .def_255 (and .def_44 (and .def_38 (and .def_102 (and .def_241 (and .def_135 (and .loc.13 (and .loc.12 (and .def_42 .def_353))))))))))) (and .def_255 (and .def_44 (and .def_38 (and .def_102 (and .def_241 (and .def_109 (and .loc.13 (and .loc.11 (and .def_42 (and .def_91 .def_367))))))))))) (and .def_270 (and .def_255 (and .def_44 (and .def_38 (and .def_102 (and .def_241 (and .def_109 (and .loc.13 (and .loc.11 (and .def_42 (and .def_91 .def_379)))))))))))) (and (or W_18 (and .def_288 (= .x.777 (store D_36 N_36 (store .def_142 .def_280 43))))) (and .def_255 (and .def_44 (and .def_38 (and .def_102 (and .def_241 (and .def_109 (and .def_135 (and .loc.13 (and .def_42 (and .def_91 .def_398)))))))))))) (and .def_364 (and .def_255 (and .def_44 (and .def_102 (and .def_241 (and .def_109 (and .def_135 (and .loc.13 (and .def_42 (and .def_40 .def_411))))))))))) (and .def_255 (and .def_44 (and .def_121 (and .def_102 (and .def_241 (and .loc.12 (and .loc.11 (and .def_42 (and .def_40 (and .def_91 .def_337))))))))))) (and .def_270 (and .def_255 (and .def_44 (and .def_121 (and .def_102 (and .def_241 (and .loc.12 (and .loc.11 (and .def_42 (and .def_40 (and .def_91 .def_434)))))))))))) (and (or W_18 (and .def_288 (= .x.777 (store D_36 N_36 (store .def_142 .def_280 42))))) (and .def_255 (and .def_44 (and .def_121 (and .def_102 (and .def_241 (and .def_135 (and .loc.12 (and .def_42 (and .def_40 (and .def_91 .def_258)))))))))))) (and (= J_36 .x.783) (and (= F_36 .x.779) (= H_36 .x.781)))) (and (or W_18 (and (and (= .x.783 0) (= .x.779 0)) (= W_0 (store B_36 0 0)))) (and (or V_36 (and (and (and (and (and (and .def_363 (not (<= .x.774 .x.787))) (not (= .x.787 0))) (= .x.786 0)) (= (select W_0 .x.787) 0)) (= .x.781 (store H_36 .x.787 400000))) (= .x.775 (store W_0 .x.787 1)))) (and .def_255 (and .def_44 (and .def_38 (and .def_121 (and .def_102 (and .def_241 (and .def_135 (and .loc.12 (and .def_42 (and .def_40 (and .loc.6 (and .def_132 (and .def_129 (and .def_80 .def_276)))))))))))))))))))))))))))))))))))))))))))))))))))))))))))))))))))))))) (state |.x.774| |.x.775| |.x.776| |.x.777| |.x.778| |.x.779| |.x.780| |.x.781| |.x.782| |.x.783| |.x.784| |.x.785| |.x.786| |.x.787| |.x.788| |.x.789| |.x.790| |.x.791| |.x.792| |.x.793| |.x.794| |V_36| |.loc.11| |.loc.12| |.loc.13| |.loc.14| |.loc.15| |.xtv.1|))))
(assert (forall ((|A_36| Int) (|B_36| (Array Int Int)) (|C_36| (Array Int Int)) (|D_36| (Array Int Int)) (|E_36| (Array Int Int)) (|F_36| Int) (|G_36| Int) (|H_36| (Array Int Int)) (|I_36| (Array Int Int)) (|J_36| Int) (|K_36| Int) (|L_36| Int) (|M_36| Int) (|N_36| Int) (|O_36| Int) (|P_36| Int) (|Q_36| Int) (|R_36| Int) (|S_36| Int) (|T_36| Int) (|U_36| Int) (|W_18| Bool) (|.loc.6| Bool) (|.loc.7| Bool) (|.loc.8| Bool) (|.loc.9| Bool) (|.loc.10| Bool) (|W_0| (Array Int Int)) (|.x.784| Int) (|.x.782| (Array Int Int)) (|.x.780| Int) (|.x.778| (Array Int Int)) (|.x.774| Int) (|.x.776| (Array Int Int)) (|.x.775| (Array Int Int)) (|V_36| Bool) (|.x.785| Int) (|.x.786| Int) (|.x.787| Int) (|.x.789| Int) (|.loc.13| Bool) (|.loc.12| Bool) (|.x.790| Int) (|.x.788| Int) (|.x.793| Int) (|.loc.11| Bool) (|.x.794| Int) (|.x.792| Int) (|.loc.14| Bool) (|.loc.15| Bool) (|.x.791| Int) (|.x.777| (Array Int Int)) (|.x.783| Int) (|.x.779| Int) (|.x.781| (Array Int Int)) (|.xtv.1| (Array Int Int))) (=> (state |A_36| |B_36| |C_36| |D_36| |E_36| |F_36| |G_36| |H_36| |I_36| |J_36| |K_36| |L_36| |M_36| |N_36| |O_36| |P_36| |Q_36| |R_36| |S_36| |T_36| |U_36| |W_18| |.loc.6| |.loc.7| |.loc.8| |.loc.9| |.loc.10| |W_0|) (not (and W_18 (and .loc.10 (and (not .loc.9) (and .loc.8 (and (not .loc.7) (not .loc.6))))))))))
(check-sat)
